************************************************************************
file with basedata            : mm45_.bas
initial value random generator: 707840294
************************************************************************
projects                      :  1
jobs (incl. supersource/sink ):  12
horizon                       :  76
RESOURCES
  - renewable                 :  2   R
  - nonrenewable              :  2   N
  - doubly constrained        :  0   D
************************************************************************
PROJECT INFORMATION:
pronr.  #jobs rel.date duedate tardcost  MPM-Time
    1     10      0       16        4       16
************************************************************************
PRECEDENCE RELATIONS:
jobnr.    #modes  #successors   successors
   0        1          3           1   2   3
   1        3          2           5   8
   2        3          3           6   7   9
   3        3          2           4   7
   4        3          1          10
   5        3          1           6
   6        3          1          10
   7        3          2           8  10
   8        3          1          11
   9        3          1          11
  10        3          1          11
  11        1          0        
************************************************************************
REQUESTS/DURATIONS:
jobnr. mode duration  R 1  R 2  R 3  R 4  E(W 1)  E(W 2)  E(W 3)
------------------------------------------------------------------------
  0      1     0       0    0    0    0     0       0       0
  1      1     3       4    6    7   10    30      21      30
  2      1     6       5    7    5    9    72      30      54
  3      1     4       7    6    9    5    52      36      20
  4      1     1       8   10    9    5    18       9       5
  5      1     6       5    4    6    7    54      36      42
  6      1     1       5    5    9    5    10       9       5
  7      1     2       7    3    9    7    20      18      14
  8      1     2       7    8    6    4    30      12       8
  9      1     1       4    5    8   10     9       8      10
 10      1     6       5    8   10    7    78      60      42
 11      1     0       0    0    0    0     0       0       0
************************************************************************
RESOURCEAVAILABILITIES:
  R 1  R 2  R 3
   26   58   54
************************************************************************
RESOURCE LIMITS:
jobnr.  l(R 1)  u(R 1)  l(R 2)  u(R 2)  l(R 3)  u(R 3)
------------------------------------------------------------------------
  0        0       0       0       0       0       0
  1        5      10       4       7       5      10
  2        7      12       3       5       5       9
  3        7      13       5       9       3       5
  4        9      18       5       9       3       5
  5        5       9       3       6       4       7
  6        6      10       5       9       3       5
  7        6      10       5       9       4       7
  8        8      15       3       6       2       4
  9        5       9       4       8       5      10
 10        7      13       5      10       4       7
 11        0       0       0       0       0       0
************************************************************************
SCENARIOS:
------------------------------------------------------------------------
RESOURCE k = 1
s = 1: (0, 39, 68, 42, 24, 64, 11, 20, 20, 10, 109, 0)
s = 2: (0, 38, 78, 63, 13, 47, 12, 13, 42, 12, 82, 0)
s = 3: (0, 22, 85, 30, 17, 39, 10, 28, 21, 7, 147, 0)
s = 4: (0, 23, 54, 48, 18, 83, 7, 16, 21, 8, 131, 0)
s = 5: (0, 40, 80, 36, 25, 57, 11, 14, 33, 9, 117, 0)
s = 6: (0, 27, 84, 73, 20, 42, 9, 26, 26, 7, 113, 0)
s = 7: (0, 23, 96, 51, 15, 43, 8, 21, 22, 7, 65, 0)
s = 8: (0, 38, 63, 105, 10, 60, 12, 17, 47, 9, 85, 0)
s = 9: (0, 18, 71, 59, 18, 71, 8, 19, 27, 13, 106, 0)
s = 10: (0, 44, 56, 77, 19, 48, 9, 15, 52, 11, 102, 0)
s = 11: (0, 32, 45, 46, 18, 36, 12, 18, 22, 6, 49, 0)
s = 12: (0, 21, 76, 71, 18, 45, 12, 20, 40, 9, 106, 0)
s = 13: (0, 31, 43, 59, 14, 35, 10, 27, 22, 12, 59, 0)
s = 14: (0, 18, 81, 32, 21, 52, 13, 14, 35, 5, 51, 0)
s = 15: (0, 30, 52, 65, 18, 59, 6, 11, 23, 10, 91, 0)
s = 16: (0, 22, 83, 52, 21, 54, 14, 13, 21, 9, 82, 0)
s = 17: (0, 26, 83, 48, 10, 51, 7, 26, 26, 10, 95, 0)
s = 18: (0, 35, 53, 58, 16, 66, 7, 19, 27, 10, 67, 0)
s = 19: (0, 25, 55, 53, 18, 74, 10, 13, 40, 11, 113, 0)
s = 20: (0, 43, 63, 74, 13, 32, 9, 12, 33, 10, 77, 0)
s = 21: (0, 34, 48, 41, 26, 36, 9, 13, 25, 9, 86, 0)
s = 22: (0, 46, 77, 47, 17, 64, 16, 25, 33, 11, 100, 0)
s = 23: (0, 33, 53, 62, 15, 76, 13, 15, 43, 6, 49, 0)
s = 24: (0, 17, 105, 36, 20, 63, 15, 22, 26, 8, 105, 0)
s = 25: (0, 32, 46, 48, 16, 55, 13, 32, 20, 10, 93, 0)
s = 26: (0, 19, 85, 56, 20, 80, 9, 23, 29, 7, 89, 0)
s = 27: (0, 35, 97, 69, 18, 61, 8, 19, 30, 7, 56, 0)
s = 28: (0, 30, 61, 46, 13, 41, 8, 15, 35, 13, 80, 0)
s = 29: (0, 25, 70, 58, 23, 45, 6, 16, 36, 8, 67, 0)
s = 30: (0, 31, 47, 49, 22, 66, 15, 18, 26, 8, 84, 0)
s = 31: (0, 30, 45, 43, 22, 36, 17, 30, 51, 8, 65, 0)
s = 32: (0, 18, 79, 47, 10, 59, 8, 16, 17, 14, 68, 0)
s = 33: (0, 36, 70, 58, 15, 52, 12, 24, 20, 14, 63, 0)
s = 34: (0, 31, 68, 43, 21, 77, 10, 24, 28, 10, 67, 0)
s = 35: (0, 21, 101, 69, 17, 53, 9, 15, 31, 9, 55, 0)
s = 36: (0, 27, 74, 31, 27, 62, 7, 20, 24, 7, 96, 0)
s = 37: (0, 24, 80, 74, 21, 66, 16, 24, 35, 9, 119, 0)
s = 38: (0, 43, 49, 43, 17, 75, 16, 19, 30, 14, 69, 0)
s = 39: (0, 43, 45, 77, 29, 53, 9, 25, 26, 8, 83, 0)
s = 40: (0, 28, 52, 47, 15, 50, 10, 24, 22, 9, 63, 0)
s = 41: (0, 32, 75, 48, 17, 77, 11, 23, 29, 10, 74, 0)
s = 42: (0, 25, 58, 49, 32, 41, 6, 12, 34, 7, 71, 0)
s = 43: (0, 25, 86, 41, 20, 61, 11, 17, 28, 10, 50, 0)
s = 44: (0, 19, 69, 64, 17, 32, 10, 16, 29, 12, 100, 0)
s = 45: (0, 36, 78, 53, 25, 83, 10, 21, 50, 7, 85, 0)
s = 46: (0, 20, 44, 44, 20, 67, 12, 25, 27, 7, 62, 0)
s = 47: (0, 32, 63, 63, 17, 57, 11, 15, 47, 6, 75, 0)
s = 48: (0, 22, 71, 48, 22, 60, 7, 15, 35, 10, 63, 0)
s = 49: (0, 16, 47, 58, 14, 44, 11, 14, 45, 8, 81, 0)
s = 50: (0, 30, 72, 31, 19, 55, 8, 14, 23, 7, 96, 0)
s = 51: (0, 19, 70, 51, 22, 52, 12, 25, 31, 10, 44, 0)
s = 52: (0, 40, 54, 51, 20, 33, 9, 27, 18, 6, 99, 0)
s = 53: (0, 24, 96, 60, 13, 53, 10, 16, 41, 12, 64, 0)
s = 54: (0, 28, 89, 49, 19, 58, 14, 15, 22, 6, 90, 0)
s = 55: (0, 26, 115, 52, 16, 35, 13, 19, 28, 13, 107, 0)
s = 56: (0, 23, 95, 47, 14, 58, 8, 24, 28, 14, 97, 0)
s = 57: (0, 29, 41, 55, 19, 67, 7, 19, 36, 12, 64, 0)
s = 58: (0, 44, 94, 43, 21, 38, 9, 19, 23, 13, 97, 0)
s = 59: (0, 27, 75, 32, 16, 42, 15, 33, 20, 6, 60, 0)
s = 60: (0, 21, 82, 29, 23, 90, 7, 20, 27, 7, 57, 0)
s = 61: (0, 39, 62, 51, 16, 59, 16, 19, 21, 13, 62, 0)
s = 62: (0, 38, 57, 57, 18, 68, 8, 19, 26, 11, 91, 0)
s = 63: (0, 19, 67, 40, 23, 87, 17, 22, 25, 8, 52, 0)
s = 64: (0, 34, 76, 61, 15, 42, 8, 20, 24, 9, 72, 0)
s = 65: (0, 36, 85, 42, 15, 38, 13, 17, 40, 12, 94, 0)
s = 66: (0, 23, 69, 40, 26, 74, 15, 16, 22, 13, 45, 0)
s = 67: (0, 34, 87, 40, 25, 58, 10, 32, 35, 10, 74, 0)
s = 68: (0, 27, 95, 62, 13, 88, 11, 17, 34, 12, 55, 0)
s = 69: (0, 37, 106, 82, 13, 51, 11, 32, 32, 10, 94, 0)
s = 70: (0, 40, 93, 65, 24, 58, 11, 18, 26, 7, 68, 0)
s = 71: (0, 20, 60, 32, 29, 55, 7, 23, 33, 7, 120, 0)
s = 72: (0, 45, 85, 58, 18, 67, 13, 27, 37, 6, 112, 0)
s = 73: (0, 25, 55, 55, 20, 68, 7, 19, 28, 7, 65, 0)
s = 74: (0, 23, 67, 35, 14, 63, 6, 17, 30, 8, 77, 0)
s = 75: (0, 39, 104, 39, 17, 72, 7, 16, 28, 13, 84, 0)
s = 76: (0, 22, 73, 61, 11, 51, 12, 17, 29, 12, 87, 0)
s = 77: (0, 23, 104, 51, 13, 56, 10, 16, 31, 10, 74, 0)
s = 78: (0, 18, 91, 54, 17, 36, 7, 15, 35, 11, 62, 0)
s = 79: (0, 27, 56, 68, 14, 48, 9, 19, 31, 13, 63, 0)
s = 80: (0, 26, 75, 66, 16, 51, 10, 19, 18, 9, 70, 0)
s = 81: (0, 32, 141, 41, 16, 60, 16, 17, 42, 5, 124, 0)
s = 82: (0, 33, 71, 34, 27, 39, 10, 25, 18, 8, 97, 0)
s = 83: (0, 20, 110, 69, 17, 42, 6, 17, 40, 8, 89, 0)
s = 84: (0, 24, 81, 66, 13, 46, 14, 17, 28, 8, 73, 0)
s = 85: (0, 39, 59, 52, 14, 33, 12, 31, 36, 13, 118, 0)
s = 86: (0, 31, 83, 43, 19, 30, 7, 21, 30, 6, 104, 0)
s = 87: (0, 21, 101, 49, 18, 56, 8, 14, 37, 7, 86, 0)
s = 88: (0, 35, 51, 50, 25, 62, 10, 21, 39, 7, 131, 0)
s = 89: (0, 30, 67, 78, 26, 31, 12, 17, 34, 8, 94, 0)
s = 90: (0, 23, 70, 65, 15, 69, 10, 28, 27, 7, 67, 0)
s = 91: (0, 33, 81, 37, 26, 50, 11, 15, 21, 8, 78, 0)
s = 92: (0, 18, 63, 50, 24, 80, 11, 18, 32, 13, 74, 0)
s = 93: (0, 23, 112, 46, 27, 67, 9, 29, 31, 8, 55, 0)
s = 94: (0, 31, 77, 39, 12, 75, 9, 22, 35, 8, 50, 0)
s = 95: (0, 24, 43, 33, 11, 45, 9, 29, 27, 8, 55, 0)
s = 96: (0, 27, 43, 62, 18, 42, 11, 17, 37, 6, 63, 0)
s = 97: (0, 35, 68, 66, 23, 53, 7, 20, 44, 11, 100, 0)
s = 98: (0, 27, 55, 57, 22, 52, 18, 28, 22, 12, 96, 0)
s = 99: (0, 34, 104, 36, 14, 82, 14, 14, 17, 10, 73, 0)
s = 100: (0, 27, 54, 67, 11, 39, 10, 27, 35, 9, 90, 0)
s = 101: (0, 46, 53, 59, 13, 37, 7, 29, 22, 11, 61, 0)
s = 102: (0, 36, 46, 34, 15, 54, 11, 24, 39, 11, 64, 0)
s = 103: (0, 42, 59, 64, 16, 44, 9, 15, 28, 7, 102, 0)
s = 104: (0, 28, 81, 42, 24, 63, 10, 22, 21, 12, 87, 0)
s = 105: (0, 36, 39, 46, 11, 38, 9, 26, 39, 9, 98, 0)
s = 106: (0, 49, 57, 59, 18, 68, 11, 23, 21, 16, 69, 0)
s = 107: (0, 22, 45, 82, 22, 68, 9, 21, 29, 13, 71, 0)
s = 108: (0, 21, 56, 92, 17, 54, 12, 26, 32, 14, 102, 0)
s = 109: (0, 46, 89, 78, 13, 59, 14, 20, 47, 11, 74, 0)
s = 110: (0, 26, 102, 50, 15, 75, 7, 35, 18, 8, 68, 0)
s = 111: (0, 32, 51, 38, 14, 55, 8, 15, 46, 13, 101, 0)
s = 112: (0, 39, 65, 48, 18, 67, 11, 13, 24, 9, 91, 0)
s = 113: (0, 43, 74, 38, 22, 38, 13, 21, 22, 6, 88, 0)
s = 114: (0, 34, 73, 31, 16, 65, 12, 12, 43, 8, 89, 0)
s = 115: (0, 23, 60, 35, 18, 37, 9, 27, 27, 11, 66, 0)
s = 116: (0, 40, 51, 47, 24, 89, 12, 13, 26, 8, 80, 0)
s = 117: (0, 24, 48, 45, 27, 67, 12, 16, 26, 10, 46, 0)
s = 118: (0, 30, 44, 59, 16, 45, 11, 23, 46, 7, 93, 0)
s = 119: (0, 22, 75, 55, 14, 33, 13, 16, 36, 8, 90, 0)
s = 120: (0, 32, 70, 32, 15, 60, 11, 15, 35, 9, 67, 0)
s = 121: (0, 41, 86, 47, 20, 64, 11, 21, 24, 7, 92, 0)
s = 122: (0, 19, 76, 56, 16, 67, 14, 19, 18, 15, 82, 0)
s = 123: (0, 32, 42, 37, 23, 51, 12, 27, 31, 11, 78, 0)
s = 124: (0, 49, 84, 32, 21, 72, 8, 13, 26, 8, 58, 0)
s = 125: (0, 23, 70, 31, 17, 37, 14, 17, 52, 9, 51, 0)
s = 126: (0, 29, 99, 70, 13, 48, 8, 13, 37, 13, 75, 0)
s = 127: (0, 25, 46, 43, 12, 53, 19, 13, 30, 8, 93, 0)
s = 128: (0, 50, 61, 30, 17, 51, 14, 22, 20, 7, 89, 0)
s = 129: (0, 18, 47, 40, 14, 36, 9, 37, 30, 11, 55, 0)
s = 130: (0, 32, 111, 44, 13, 52, 8, 19, 37, 8, 80, 0)
s = 131: (0, 34, 48, 55, 21, 60, 18, 18, 19, 9, 91, 0)
s = 132: (0, 29, 48, 46, 11, 83, 11, 24, 30, 5, 53, 0)
s = 133: (0, 34, 71, 42, 13, 97, 12, 14, 36, 11, 76, 0)
s = 134: (0, 19, 63, 58, 14, 44, 9, 18, 25, 10, 93, 0)
s = 135: (0, 23, 110, 33, 23, 63, 9, 31, 26, 13, 115, 0)
s = 136: (0, 35, 88, 40, 22, 73, 11, 13, 25, 5, 83, 0)
s = 137: (0, 37, 40, 50, 16, 49, 10, 19, 25, 10, 55, 0)
s = 138: (0, 36, 71, 77, 17, 50, 9, 14, 32, 10, 84, 0)
s = 139: (0, 46, 112, 34, 20, 45, 13, 22, 34, 15, 58, 0)
s = 140: (0, 30, 57, 38, 15, 50, 8, 17, 19, 6, 76, 0)
s = 141: (0, 24, 53, 61, 16, 88, 11, 15, 31, 8, 103, 0)
s = 142: (0, 28, 50, 65, 13, 55, 10, 21, 28, 10, 56, 0)
s = 143: (0, 39, 84, 34, 26, 45, 10, 11, 29, 14, 78, 0)
s = 144: (0, 56, 124, 46, 16, 49, 7, 13, 22, 7, 60, 0)
s = 145: (0, 30, 103, 39, 19, 65, 8, 18, 29, 12, 57, 0)
s = 146: (0, 26, 57, 47, 26, 56, 11, 16, 17, 11, 74, 0)
s = 147: (0, 21, 42, 61, 15, 36, 16, 15, 19, 7, 86, 0)
s = 148: (0, 36, 73, 43, 24, 56, 11, 18, 21, 8, 84, 0)
s = 149: (0, 39, 62, 42, 20, 47, 14, 20, 24, 9, 56, 0)
s = 150: (0, 32, 51, 83, 14, 79, 17, 18, 26, 11, 85, 0)
s = 151: (0, 30, 51, 48, 16, 60, 15, 14, 22, 9, 61, 0)
s = 152: (0, 46, 45, 30, 13, 44, 6, 17, 22, 8, 76, 0)
s = 153: (0, 20, 70, 39, 17, 66, 8, 19, 21, 8, 111, 0)
s = 154: (0, 30, 67, 72, 14, 30, 8, 15, 27, 9, 90, 0)
s = 155: (0, 20, 107, 49, 25, 66, 15, 21, 28, 13, 91, 0)
s = 156: (0, 31, 49, 31, 13, 42, 7, 17, 29, 13, 41, 0)
s = 157: (0, 22, 52, 63, 17, 87, 12, 20, 38, 7, 62, 0)
s = 158: (0, 30, 56, 72, 17, 50, 10, 24, 35, 8, 65, 0)
s = 159: (0, 39, 63, 76, 28, 31, 11, 22, 23, 8, 126, 0)
s = 160: (0, 22, 85, 80, 12, 30, 11, 17, 24, 9, 79, 0)
s = 161: (0, 39, 100, 66, 12, 70, 15, 18, 17, 14, 85, 0)
s = 162: (0, 51, 71, 38, 20, 52, 9, 25, 27, 12, 72, 0)
s = 163: (0, 25, 84, 66, 17, 57, 9, 17, 42, 15, 52, 0)
s = 164: (0, 29, 82, 47, 22, 30, 12, 21, 23, 9, 95, 0)
s = 165: (0, 32, 103, 65, 17, 38, 8, 15, 29, 6, 141, 0)
s = 166: (0, 37, 94, 57, 21, 84, 10, 24, 46, 13, 71, 0)
s = 167: (0, 21, 98, 61, 16, 69, 12, 16, 19, 10, 125, 0)
s = 168: (0, 37, 55, 45, 22, 66, 16, 27, 29, 8, 54, 0)
s = 169: (0, 31, 91, 62, 22, 48, 9, 22, 33, 14, 110, 0)
s = 170: (0, 26, 57, 80, 16, 62, 11, 12, 29, 14, 71, 0)
s = 171: (0, 48, 51, 67, 10, 75, 7, 15, 31, 7, 76, 0)
s = 172: (0, 41, 74, 63, 15, 39, 10, 25, 19, 7, 57, 0)
s = 173: (0, 27, 77, 67, 31, 58, 11, 25, 35, 8, 48, 0)
s = 174: (0, 25, 59, 53, 15, 61, 10, 19, 20, 8, 71, 0)
s = 175: (0, 23, 95, 29, 16, 58, 9, 23, 17, 6, 86, 0)
s = 176: (0, 21, 58, 57, 24, 63, 9, 18, 30, 10, 65, 0)
s = 177: (0, 41, 63, 63, 13, 60, 11, 20, 30, 8, 95, 0)
s = 178: (0, 24, 42, 77, 15, 49, 10, 14, 37, 10, 56, 0)
s = 179: (0, 34, 85, 43, 15, 65, 12, 22, 38, 14, 46, 0)
s = 180: (0, 26, 41, 59, 19, 42, 8, 19, 35, 7, 76, 0)
s = 181: (0, 21, 75, 31, 12, 98, 10, 14, 31, 8, 100, 0)
s = 182: (0, 20, 88, 35, 19, 40, 7, 13, 23, 10, 64, 0)
s = 183: (0, 21, 69, 34, 22, 47, 8, 29, 43, 16, 129, 0)
s = 184: (0, 32, 75, 67, 15, 65, 11, 17, 44, 7, 60, 0)
s = 185: (0, 30, 76, 41, 15, 44, 9, 14, 31, 7, 72, 0)
s = 186: (0, 31, 135, 58, 11, 86, 14, 18, 45, 11, 67, 0)
s = 187: (0, 40, 103, 60, 11, 48, 13, 16, 31, 8, 55, 0)
s = 188: (0, 33, 84, 49, 11, 50, 9, 13, 33, 7, 110, 0)
s = 189: (0, 41, 64, 35, 22, 42, 13, 23, 48, 10, 92, 0)
s = 190: (0, 32, 63, 54, 20, 35, 9, 18, 43, 13, 72, 0)
s = 191: (0, 25, 50, 42, 24, 56, 10, 32, 26, 11, 44, 0)
s = 192: (0, 27, 108, 35, 18, 47, 14, 16, 34, 8, 111, 0)
s = 193: (0, 28, 62, 48, 13, 76, 7, 13, 22, 12, 45, 0)
s = 194: (0, 34, 72, 31, 21, 37, 7, 20, 21, 12, 77, 0)
s = 195: (0, 18, 90, 37, 13, 39, 9, 19, 28, 6, 89, 0)
s = 196: (0, 39, 70, 42, 16, 47, 9, 28, 23, 11, 53, 0)
s = 197: (0, 30, 131, 68, 11, 36, 10, 16, 22, 7, 106, 0)
s = 198: (0, 46, 39, 41, 14, 43, 12, 22, 41, 9, 67, 0)
s = 199: (0, 39, 45, 49, 16, 38, 12, 21, 42, 8, 95, 0)
s = 200: (0, 35, 86, 51, 19, 41, 12, 26, 26, 10, 87, 0)
------------------------------------------------------------------------
RESOURCE k = 2
s = 1: (0, 27, 29, 29, 12, 43, 10, 18, 8, 9, 84, 0)
s = 2: (0, 27, 33, 44, 7, 32, 11, 12, 17, 11, 63, 0)
s = 3: (0, 15, 36, 21, 9, 26, 9, 25, 9, 6, 113, 0)
s = 4: (0, 16, 23, 34, 9, 55, 7, 15, 9, 7, 101, 0)
s = 5: (0, 28, 34, 25, 13, 38, 10, 12, 14, 8, 90, 0)
s = 6: (0, 19, 35, 50, 10, 28, 8, 23, 11, 6, 87, 0)
s = 7: (0, 16, 40, 36, 8, 29, 7, 19, 9, 7, 50, 0)
s = 8: (0, 27, 26, 73, 5, 40, 10, 16, 19, 8, 66, 0)
s = 9: (0, 13, 30, 41, 9, 48, 7, 17, 11, 12, 82, 0)
s = 10: (0, 31, 24, 53, 10, 32, 8, 13, 21, 10, 78, 0)
s = 11: (0, 23, 19, 32, 9, 24, 11, 16, 9, 5, 38, 0)
s = 12: (0, 15, 32, 49, 9, 30, 11, 18, 16, 8, 82, 0)
s = 13: (0, 22, 18, 41, 7, 24, 9, 24, 9, 11, 46, 0)
s = 14: (0, 13, 34, 22, 11, 35, 12, 13, 14, 5, 39, 0)
s = 15: (0, 21, 22, 45, 9, 40, 6, 10, 10, 9, 70, 0)
s = 16: (0, 15, 35, 36, 11, 36, 12, 12, 9, 8, 64, 0)
s = 17: (0, 18, 35, 34, 5, 34, 7, 24, 11, 9, 73, 0)
s = 18: (0, 25, 22, 40, 8, 44, 6, 17, 11, 9, 52, 0)
s = 19: (0, 18, 23, 37, 9, 49, 9, 12, 16, 10, 87, 0)
s = 20: (0, 31, 27, 51, 7, 22, 8, 11, 13, 9, 59, 0)
s = 21: (0, 24, 20, 29, 13, 24, 8, 11, 10, 8, 66, 0)
s = 22: (0, 32, 32, 33, 9, 43, 15, 23, 13, 10, 77, 0)
s = 23: (0, 23, 22, 43, 8, 51, 12, 14, 18, 5, 38, 0)
s = 24: (0, 12, 44, 25, 10, 42, 14, 20, 11, 7, 81, 0)
s = 25: (0, 23, 20, 33, 8, 37, 12, 29, 8, 9, 72, 0)
s = 26: (0, 13, 36, 39, 10, 54, 8, 21, 12, 6, 68, 0)
s = 27: (0, 25, 41, 48, 9, 41, 8, 18, 12, 7, 43, 0)
s = 28: (0, 21, 26, 32, 7, 27, 7, 14, 14, 11, 62, 0)
s = 29: (0, 18, 30, 40, 12, 30, 5, 15, 15, 7, 51, 0)
s = 30: (0, 22, 20, 34, 11, 44, 14, 16, 11, 7, 65, 0)
s = 31: (0, 21, 19, 30, 11, 24, 15, 27, 21, 7, 50, 0)
s = 32: (0, 13, 33, 33, 5, 40, 8, 15, 7, 13, 52, 0)
s = 33: (0, 25, 29, 40, 8, 35, 11, 22, 8, 12, 49, 0)
s = 34: (0, 22, 29, 30, 11, 52, 9, 22, 11, 9, 52, 0)
s = 35: (0, 15, 42, 48, 9, 35, 9, 13, 13, 8, 42, 0)
s = 36: (0, 19, 31, 21, 14, 41, 6, 18, 10, 6, 74, 0)
s = 37: (0, 17, 34, 51, 11, 44, 15, 22, 14, 8, 91, 0)
s = 38: (0, 30, 21, 30, 9, 50, 15, 17, 12, 13, 54, 0)
s = 39: (0, 30, 19, 54, 15, 36, 8, 22, 11, 7, 64, 0)
s = 40: (0, 20, 22, 33, 8, 34, 9, 22, 9, 8, 49, 0)
s = 41: (0, 23, 32, 33, 9, 51, 10, 21, 12, 9, 57, 0)
s = 42: (0, 18, 25, 34, 16, 28, 6, 11, 14, 7, 55, 0)
s = 43: (0, 17, 36, 29, 10, 41, 10, 15, 12, 9, 39, 0)
s = 44: (0, 13, 29, 45, 9, 21, 9, 15, 12, 11, 77, 0)
s = 45: (0, 25, 33, 37, 13, 56, 9, 19, 20, 6, 66, 0)
s = 46: (0, 14, 19, 31, 10, 45, 11, 23, 11, 6, 48, 0)
s = 47: (0, 23, 26, 44, 9, 38, 10, 13, 19, 5, 58, 0)
s = 48: (0, 16, 30, 33, 11, 40, 7, 13, 14, 9, 48, 0)
s = 49: (0, 11, 20, 41, 7, 30, 10, 13, 18, 8, 62, 0)
s = 50: (0, 21, 30, 22, 10, 37, 7, 13, 9, 6, 74, 0)
s = 51: (0, 14, 29, 35, 11, 35, 11, 22, 13, 9, 34, 0)
s = 52: (0, 28, 23, 36, 10, 22, 8, 24, 7, 5, 76, 0)
s = 53: (0, 17, 40, 42, 7, 36, 9, 14, 17, 11, 50, 0)
s = 54: (0, 20, 37, 34, 10, 39, 12, 14, 9, 5, 70, 0)
s = 55: (0, 18, 48, 36, 8, 24, 12, 17, 12, 12, 83, 0)
s = 56: (0, 16, 40, 33, 7, 39, 8, 22, 12, 13, 74, 0)
s = 57: (0, 21, 17, 38, 10, 45, 6, 17, 15, 10, 50, 0)
s = 58: (0, 31, 40, 30, 11, 26, 8, 18, 10, 12, 75, 0)
s = 59: (0, 19, 32, 23, 8, 28, 14, 30, 8, 6, 46, 0)
s = 60: (0, 15, 35, 20, 12, 60, 7, 18, 11, 6, 44, 0)
s = 61: (0, 28, 26, 35, 8, 40, 14, 17, 9, 11, 47, 0)
s = 62: (0, 27, 24, 40, 9, 45, 7, 17, 11, 9, 70, 0)
s = 63: (0, 13, 28, 28, 12, 58, 15, 20, 10, 8, 40, 0)
s = 64: (0, 24, 32, 42, 8, 28, 7, 18, 10, 8, 56, 0)
s = 65: (0, 26, 36, 29, 8, 25, 11, 15, 16, 10, 72, 0)
s = 66: (0, 16, 29, 28, 13, 50, 14, 15, 9, 11, 35, 0)
s = 67: (0, 24, 37, 28, 13, 39, 9, 29, 14, 9, 57, 0)
s = 68: (0, 19, 40, 43, 7, 59, 10, 16, 14, 10, 42, 0)
s = 69: (0, 26, 44, 57, 7, 34, 10, 29, 13, 9, 72, 0)
s = 70: (0, 28, 39, 45, 12, 39, 10, 16, 11, 7, 53, 0)
s = 71: (0, 14, 25, 22, 15, 37, 6, 21, 14, 7, 93, 0)
s = 72: (0, 32, 36, 41, 9, 45, 11, 25, 15, 6, 86, 0)
s = 73: (0, 17, 23, 39, 10, 45, 6, 17, 11, 6, 50, 0)
s = 74: (0, 16, 28, 24, 7, 42, 5, 15, 12, 7, 59, 0)
s = 75: (0, 27, 44, 27, 9, 48, 6, 14, 12, 12, 65, 0)
s = 76: (0, 15, 31, 42, 6, 34, 11, 15, 12, 11, 67, 0)
s = 77: (0, 16, 44, 35, 7, 37, 9, 15, 13, 9, 57, 0)
s = 78: (0, 12, 38, 38, 9, 24, 7, 14, 14, 10, 48, 0)
s = 79: (0, 19, 24, 47, 7, 32, 8, 17, 13, 12, 48, 0)
s = 80: (0, 19, 32, 46, 8, 34, 9, 17, 8, 8, 54, 0)
s = 81: (0, 23, 59, 29, 8, 40, 14, 16, 17, 5, 95, 0)
s = 82: (0, 23, 30, 24, 14, 26, 9, 23, 8, 8, 75, 0)
s = 83: (0, 14, 46, 48, 9, 28, 6, 15, 16, 7, 69, 0)
s = 84: (0, 17, 34, 46, 7, 31, 13, 15, 12, 7, 56, 0)
s = 85: (0, 27, 25, 36, 7, 22, 11, 28, 15, 11, 91, 0)
s = 86: (0, 22, 35, 30, 10, 20, 6, 19, 12, 5, 80, 0)
s = 87: (0, 15, 42, 34, 9, 37, 7, 13, 15, 6, 67, 0)
s = 88: (0, 25, 21, 35, 13, 41, 9, 19, 16, 6, 101, 0)
s = 89: (0, 21, 28, 54, 13, 21, 11, 15, 14, 7, 73, 0)
s = 90: (0, 16, 29, 45, 8, 46, 9, 26, 11, 7, 52, 0)
s = 91: (0, 23, 34, 26, 13, 33, 10, 14, 9, 7, 60, 0)
s = 92: (0, 13, 26, 35, 12, 54, 10, 16, 13, 11, 57, 0)
s = 93: (0, 16, 47, 32, 14, 45, 8, 26, 13, 7, 43, 0)
s = 94: (0, 22, 33, 27, 6, 50, 9, 19, 14, 7, 38, 0)
s = 95: (0, 17, 18, 23, 6, 30, 8, 26, 11, 7, 43, 0)
s = 96: (0, 19, 18, 43, 9, 28, 10, 15, 15, 6, 49, 0)
s = 97: (0, 25, 29, 46, 12, 36, 6, 18, 18, 10, 77, 0)
s = 98: (0, 19, 23, 40, 11, 35, 16, 25, 9, 11, 74, 0)
s = 99: (0, 24, 44, 25, 7, 55, 12, 13, 7, 9, 56, 0)
s = 100: (0, 19, 23, 47, 6, 26, 9, 24, 14, 8, 69, 0)
s = 101: (0, 33, 22, 41, 7, 25, 6, 27, 9, 10, 47, 0)
s = 102: (0, 26, 20, 24, 8, 36, 10, 22, 16, 10, 50, 0)
s = 103: (0, 29, 25, 45, 8, 30, 9, 13, 11, 7, 78, 0)
s = 104: (0, 20, 34, 29, 12, 42, 9, 20, 9, 11, 67, 0)
s = 105: (0, 26, 16, 32, 6, 25, 8, 23, 16, 8, 75, 0)
s = 106: (0, 35, 24, 41, 9, 45, 10, 21, 9, 14, 53, 0)
s = 107: (0, 15, 19, 57, 11, 46, 8, 19, 12, 11, 55, 0)
s = 108: (0, 15, 23, 64, 9, 36, 11, 23, 13, 12, 79, 0)
s = 109: (0, 32, 37, 54, 7, 40, 13, 18, 19, 10, 57, 0)
s = 110: (0, 18, 43, 35, 8, 50, 7, 32, 8, 7, 52, 0)
s = 111: (0, 22, 21, 27, 7, 37, 8, 14, 19, 12, 77, 0)
s = 112: (0, 27, 28, 33, 9, 45, 10, 12, 10, 8, 70, 0)
s = 113: (0, 30, 31, 26, 11, 25, 12, 19, 9, 6, 68, 0)
s = 114: (0, 24, 31, 22, 8, 44, 10, 11, 18, 7, 68, 0)
s = 115: (0, 17, 25, 25, 9, 25, 8, 24, 11, 10, 51, 0)
s = 116: (0, 28, 21, 32, 12, 60, 11, 12, 11, 7, 62, 0)
s = 117: (0, 17, 20, 31, 14, 45, 11, 15, 11, 9, 36, 0)
s = 118: (0, 21, 19, 41, 8, 30, 10, 21, 19, 6, 72, 0)
s = 119: (0, 15, 32, 39, 7, 22, 12, 14, 15, 7, 70, 0)
s = 120: (0, 22, 30, 22, 8, 40, 10, 14, 14, 8, 52, 0)
s = 121: (0, 29, 36, 33, 10, 43, 10, 19, 10, 6, 71, 0)
s = 122: (0, 14, 32, 39, 8, 45, 12, 17, 7, 13, 63, 0)
s = 123: (0, 23, 18, 26, 12, 34, 11, 24, 13, 10, 60, 0)
s = 124: (0, 35, 35, 22, 11, 48, 7, 12, 11, 7, 44, 0)
s = 125: (0, 16, 29, 21, 9, 25, 13, 16, 21, 8, 40, 0)
s = 126: (0, 21, 41, 49, 7, 32, 7, 11, 15, 11, 58, 0)
s = 127: (0, 17, 20, 30, 6, 36, 17, 11, 12, 7, 72, 0)
s = 128: (0, 35, 26, 21, 9, 34, 13, 20, 8, 6, 69, 0)
s = 129: (0, 13, 20, 28, 7, 24, 8, 33, 12, 10, 43, 0)
s = 130: (0, 23, 46, 31, 7, 35, 7, 17, 15, 7, 62, 0)
s = 131: (0, 24, 20, 39, 11, 40, 16, 17, 8, 8, 70, 0)
s = 132: (0, 21, 20, 32, 6, 55, 10, 21, 12, 5, 41, 0)
s = 133: (0, 24, 30, 29, 7, 65, 11, 13, 15, 10, 58, 0)
s = 134: (0, 14, 26, 40, 7, 29, 8, 16, 10, 9, 71, 0)
s = 135: (0, 16, 46, 23, 12, 42, 8, 28, 11, 12, 88, 0)
s = 136: (0, 24, 37, 28, 11, 49, 10, 12, 10, 5, 64, 0)
s = 137: (0, 26, 17, 35, 8, 33, 9, 18, 10, 9, 43, 0)
s = 138: (0, 25, 30, 53, 9, 34, 8, 13, 13, 9, 65, 0)
s = 139: (0, 32, 47, 24, 10, 30, 12, 20, 14, 13, 45, 0)
s = 140: (0, 21, 24, 26, 8, 34, 7, 15, 8, 5, 59, 0)
s = 141: (0, 17, 22, 42, 8, 59, 10, 14, 13, 7, 80, 0)
s = 142: (0, 20, 21, 45, 7, 37, 9, 19, 12, 9, 43, 0)
s = 143: (0, 27, 35, 24, 13, 30, 9, 10, 12, 12, 60, 0)
s = 144: (0, 39, 52, 32, 8, 33, 6, 12, 9, 6, 46, 0)
s = 145: (0, 21, 43, 27, 10, 43, 8, 16, 12, 11, 44, 0)
s = 146: (0, 18, 24, 32, 13, 38, 10, 15, 7, 10, 57, 0)
s = 147: (0, 15, 18, 42, 8, 24, 14, 14, 8, 7, 66, 0)
s = 148: (0, 25, 31, 30, 12, 38, 10, 16, 9, 7, 65, 0)
s = 149: (0, 28, 26, 29, 10, 32, 13, 18, 10, 8, 43, 0)
s = 150: (0, 23, 22, 57, 7, 53, 15, 16, 11, 10, 66, 0)
s = 151: (0, 21, 22, 34, 8, 40, 13, 13, 9, 8, 47, 0)
s = 152: (0, 32, 19, 21, 7, 30, 5, 16, 9, 7, 58, 0)
s = 153: (0, 14, 30, 27, 9, 44, 7, 17, 9, 8, 86, 0)
s = 154: (0, 21, 28, 50, 7, 20, 7, 14, 11, 8, 69, 0)
s = 155: (0, 14, 45, 34, 13, 44, 13, 19, 11, 11, 70, 0)
s = 156: (0, 22, 21, 21, 7, 28, 6, 15, 12, 12, 32, 0)
s = 157: (0, 16, 22, 44, 9, 58, 11, 18, 15, 6, 48, 0)
s = 158: (0, 21, 24, 50, 9, 33, 9, 22, 14, 8, 50, 0)
s = 159: (0, 27, 26, 52, 14, 21, 10, 20, 9, 7, 97, 0)
s = 160: (0, 16, 36, 55, 6, 20, 10, 15, 10, 8, 61, 0)
s = 161: (0, 27, 42, 46, 6, 47, 14, 16, 7, 13, 65, 0)
s = 162: (0, 36, 30, 26, 10, 35, 8, 23, 11, 10, 56, 0)
s = 163: (0, 18, 35, 46, 9, 38, 8, 15, 17, 13, 40, 0)
s = 164: (0, 21, 34, 33, 11, 20, 11, 19, 9, 8, 73, 0)
s = 165: (0, 22, 43, 45, 9, 26, 7, 14, 12, 5, 108, 0)
s = 166: (0, 26, 40, 40, 11, 56, 9, 22, 19, 12, 55, 0)
s = 167: (0, 15, 41, 43, 8, 46, 11, 14, 8, 9, 96, 0)
s = 168: (0, 26, 23, 32, 11, 44, 14, 24, 12, 7, 42, 0)
s = 169: (0, 22, 38, 43, 11, 32, 8, 20, 13, 12, 85, 0)
s = 170: (0, 18, 24, 56, 8, 42, 10, 11, 12, 13, 55, 0)
s = 171: (0, 34, 21, 47, 5, 50, 6, 13, 13, 7, 58, 0)
s = 172: (0, 29, 31, 44, 8, 26, 9, 23, 8, 7, 44, 0)
s = 173: (0, 19, 32, 47, 16, 39, 10, 22, 14, 8, 37, 0)
s = 174: (0, 18, 25, 37, 8, 41, 9, 17, 8, 7, 55, 0)
s = 175: (0, 16, 40, 20, 8, 39, 9, 20, 7, 6, 66, 0)
s = 176: (0, 15, 24, 40, 12, 42, 8, 16, 12, 9, 50, 0)
s = 177: (0, 29, 27, 44, 7, 40, 10, 18, 12, 7, 73, 0)
s = 178: (0, 17, 18, 54, 8, 33, 9, 13, 15, 9, 43, 0)
s = 179: (0, 24, 36, 30, 8, 44, 11, 20, 16, 12, 36, 0)
s = 180: (0, 19, 17, 41, 10, 28, 7, 18, 14, 6, 59, 0)
s = 181: (0, 15, 32, 21, 6, 65, 9, 13, 13, 7, 77, 0)
s = 182: (0, 14, 37, 24, 10, 27, 6, 11, 10, 9, 49, 0)
s = 183: (0, 15, 29, 23, 11, 31, 7, 26, 17, 14, 99, 0)
s = 184: (0, 22, 31, 46, 8, 43, 10, 15, 18, 6, 46, 0)
s = 185: (0, 21, 32, 29, 8, 29, 8, 13, 13, 6, 55, 0)
s = 186: (0, 22, 57, 40, 6, 57, 12, 16, 18, 10, 52, 0)
s = 187: (0, 28, 43, 42, 6, 32, 12, 14, 13, 7, 43, 0)
s = 188: (0, 23, 35, 34, 6, 33, 9, 12, 14, 7, 85, 0)
s = 189: (0, 29, 27, 24, 11, 28, 12, 20, 20, 9, 71, 0)
s = 190: (0, 22, 27, 38, 10, 23, 8, 16, 18, 12, 56, 0)
s = 191: (0, 17, 21, 29, 12, 37, 9, 29, 11, 10, 34, 0)
s = 192: (0, 19, 45, 24, 9, 31, 13, 14, 14, 7, 86, 0)
s = 193: (0, 20, 26, 33, 7, 51, 6, 12, 9, 11, 35, 0)
s = 194: (0, 24, 30, 22, 11, 25, 7, 18, 9, 10, 59, 0)
s = 195: (0, 13, 38, 26, 7, 26, 8, 17, 12, 5, 69, 0)
s = 196: (0, 27, 30, 29, 8, 32, 8, 25, 10, 9, 41, 0)
s = 197: (0, 21, 55, 47, 6, 24, 9, 14, 9, 6, 81, 0)
s = 198: (0, 32, 17, 29, 7, 29, 11, 20, 17, 8, 51, 0)
s = 199: (0, 27, 19, 34, 8, 26, 11, 19, 17, 8, 73, 0)
s = 200: (0, 25, 36, 35, 10, 27, 11, 23, 11, 9, 67, 0)
------------------------------------------------------------------------
RESOURCE k = 3
s = 1: (0, 39, 51, 16, 7, 50, 6, 14, 6, 11, 59, 0)
s = 2: (0, 38, 59, 24, 4, 37, 6, 10, 12, 14, 44, 0)
s = 3: (0, 22, 64, 12, 5, 31, 5, 20, 6, 7, 80, 0)
s = 4: (0, 23, 40, 19, 5, 64, 4, 11, 6, 9, 71, 0)
s = 5: (0, 40, 60, 14, 7, 44, 6, 10, 9, 10, 63, 0)
s = 6: (0, 27, 63, 28, 6, 32, 5, 18, 7, 8, 61, 0)
s = 7: (0, 23, 72, 20, 5, 34, 4, 15, 6, 8, 35, 0)
s = 8: (0, 38, 47, 41, 3, 47, 6, 12, 13, 10, 46, 0)
s = 9: (0, 18, 53, 23, 5, 56, 4, 13, 8, 15, 57, 0)
s = 10: (0, 44, 42, 30, 6, 38, 5, 10, 14, 13, 55, 0)
s = 11: (0, 32, 34, 18, 5, 28, 6, 13, 6, 7, 27, 0)
s = 12: (0, 21, 57, 27, 5, 35, 6, 14, 11, 10, 57, 0)
s = 13: (0, 31, 32, 23, 4, 27, 5, 19, 6, 13, 32, 0)
s = 14: (0, 18, 61, 13, 6, 41, 7, 10, 10, 6, 28, 0)
s = 15: (0, 30, 39, 25, 5, 46, 3, 8, 7, 11, 49, 0)
s = 16: (0, 22, 62, 20, 6, 42, 7, 9, 6, 10, 45, 0)
s = 17: (0, 26, 62, 19, 3, 39, 4, 19, 7, 11, 51, 0)
s = 18: (0, 35, 40, 23, 5, 52, 4, 13, 8, 11, 36, 0)
s = 19: (0, 25, 41, 21, 5, 57, 5, 9, 11, 13, 61, 0)
s = 20: (0, 43, 47, 29, 4, 25, 5, 8, 9, 11, 42, 0)
s = 21: (0, 34, 36, 16, 8, 28, 5, 9, 7, 10, 46, 0)
s = 22: (0, 46, 58, 18, 5, 50, 8, 18, 9, 12, 54, 0)
s = 23: (0, 33, 40, 24, 4, 59, 7, 11, 12, 6, 26, 0)
s = 24: (0, 17, 79, 14, 6, 49, 8, 15, 7, 9, 57, 0)
s = 25: (0, 32, 35, 19, 5, 43, 7, 23, 6, 11, 50, 0)
s = 26: (0, 19, 64, 22, 6, 62, 5, 16, 8, 7, 48, 0)
s = 27: (0, 35, 73, 27, 5, 48, 4, 14, 8, 8, 30, 0)
s = 28: (0, 30, 46, 18, 4, 32, 4, 11, 10, 14, 43, 0)
s = 29: (0, 25, 53, 23, 7, 35, 3, 12, 10, 8, 36, 0)
s = 30: (0, 31, 35, 19, 6, 51, 8, 13, 7, 9, 45, 0)
s = 31: (0, 30, 34, 17, 7, 28, 9, 21, 14, 9, 35, 0)
s = 32: (0, 18, 60, 18, 3, 46, 4, 11, 5, 16, 37, 0)
s = 33: (0, 36, 52, 23, 4, 41, 6, 17, 6, 15, 34, 0)
s = 34: (0, 31, 51, 17, 6, 60, 5, 17, 8, 11, 36, 0)
s = 35: (0, 21, 76, 27, 5, 41, 5, 10, 9, 10, 30, 0)
s = 36: (0, 27, 56, 12, 8, 48, 4, 14, 7, 8, 52, 0)
s = 37: (0, 24, 60, 29, 6, 51, 8, 17, 10, 10, 64, 0)
s = 38: (0, 43, 37, 17, 5, 58, 8, 14, 8, 16, 38, 0)
s = 39: (0, 43, 34, 30, 9, 41, 5, 17, 7, 9, 45, 0)
s = 40: (0, 28, 39, 18, 5, 39, 5, 17, 6, 10, 34, 0)
s = 41: (0, 32, 56, 19, 5, 60, 6, 16, 8, 11, 40, 0)
s = 42: (0, 25, 44, 19, 9, 32, 3, 9, 9, 8, 39, 0)
s = 43: (0, 25, 64, 16, 6, 47, 6, 12, 8, 11, 27, 0)
s = 44: (0, 19, 52, 25, 5, 25, 5, 12, 8, 14, 54, 0)
s = 45: (0, 36, 59, 21, 7, 65, 5, 15, 14, 7, 46, 0)
s = 46: (0, 20, 33, 17, 6, 52, 6, 18, 8, 7, 34, 0)
s = 47: (0, 32, 47, 25, 5, 44, 6, 10, 13, 6, 41, 0)
s = 48: (0, 22, 53, 19, 6, 47, 4, 10, 10, 11, 34, 0)
s = 49: (0, 16, 35, 23, 4, 34, 6, 10, 12, 9, 44, 0)
s = 50: (0, 30, 54, 12, 6, 43, 4, 10, 6, 7, 52, 0)
s = 51: (0, 19, 53, 20, 6, 40, 6, 17, 9, 11, 24, 0)
s = 52: (0, 40, 41, 20, 6, 26, 5, 19, 5, 6, 54, 0)
s = 53: (0, 24, 72, 23, 4, 42, 5, 11, 11, 14, 35, 0)
s = 54: (0, 28, 67, 19, 6, 45, 7, 11, 6, 6, 49, 0)
s = 55: (0, 26, 86, 20, 5, 28, 7, 13, 8, 15, 58, 0)
s = 56: (0, 23, 71, 18, 4, 45, 4, 17, 8, 16, 52, 0)
s = 57: (0, 29, 31, 21, 6, 52, 4, 13, 10, 13, 35, 0)
s = 58: (0, 44, 71, 17, 6, 30, 5, 14, 7, 15, 53, 0)
s = 59: (0, 27, 57, 13, 5, 33, 8, 23, 6, 7, 33, 0)
s = 60: (0, 21, 62, 12, 7, 70, 4, 14, 8, 8, 31, 0)
s = 61: (0, 39, 46, 20, 5, 46, 8, 14, 6, 14, 33, 0)
s = 62: (0, 38, 43, 22, 5, 53, 4, 13, 7, 12, 49, 0)
s = 63: (0, 19, 50, 16, 7, 68, 9, 16, 7, 9, 28, 0)
s = 64: (0, 34, 57, 24, 5, 33, 4, 14, 7, 10, 39, 0)
s = 65: (0, 36, 64, 16, 5, 30, 7, 12, 11, 13, 51, 0)
s = 66: (0, 23, 52, 16, 8, 58, 8, 12, 6, 14, 25, 0)
s = 67: (0, 34, 65, 16, 7, 45, 5, 23, 10, 11, 40, 0)
s = 68: (0, 27, 71, 24, 4, 69, 6, 12, 9, 13, 30, 0)
s = 69: (0, 37, 80, 32, 4, 39, 6, 22, 9, 11, 51, 0)
s = 70: (0, 40, 70, 25, 7, 45, 6, 12, 7, 8, 37, 0)
s = 71: (0, 20, 45, 13, 8, 43, 4, 16, 9, 8, 65, 0)
s = 72: (0, 45, 64, 23, 5, 53, 7, 19, 10, 7, 61, 0)
s = 73: (0, 25, 42, 22, 6, 53, 4, 13, 8, 7, 35, 0)
s = 74: (0, 23, 50, 14, 4, 49, 3, 12, 8, 8, 42, 0)
s = 75: (0, 39, 78, 15, 5, 56, 4, 11, 8, 15, 45, 0)
s = 76: (0, 22, 55, 24, 3, 40, 6, 12, 8, 13, 47, 0)
s = 77: (0, 23, 78, 20, 4, 44, 5, 11, 9, 11, 40, 0)
s = 78: (0, 18, 69, 21, 5, 28, 4, 11, 10, 12, 34, 0)
s = 79: (0, 27, 42, 26, 4, 38, 5, 13, 9, 14, 34, 0)
s = 80: (0, 26, 57, 26, 5, 40, 5, 13, 5, 10, 38, 0)
s = 81: (0, 32, 106, 16, 5, 47, 8, 12, 12, 6, 67, 0)
s = 82: (0, 33, 54, 13, 8, 31, 5, 18, 5, 9, 53, 0)
s = 83: (0, 20, 82, 27, 5, 33, 3, 12, 11, 9, 48, 0)
s = 84: (0, 24, 61, 26, 4, 36, 7, 12, 8, 8, 40, 0)
s = 85: (0, 39, 44, 20, 4, 26, 6, 22, 10, 14, 64, 0)
s = 86: (0, 31, 62, 17, 6, 23, 4, 15, 8, 6, 56, 0)
s = 87: (0, 21, 76, 19, 5, 43, 4, 10, 10, 7, 47, 0)
s = 88: (0, 35, 38, 19, 7, 48, 5, 15, 11, 8, 71, 0)
s = 89: (0, 30, 50, 30, 8, 24, 6, 12, 9, 9, 51, 0)
s = 90: (0, 23, 52, 25, 5, 54, 5, 20, 8, 8, 36, 0)
s = 91: (0, 33, 61, 14, 8, 39, 6, 11, 6, 9, 42, 0)
s = 92: (0, 18, 47, 20, 7, 63, 6, 13, 9, 14, 40, 0)
s = 93: (0, 23, 84, 18, 8, 52, 5, 20, 9, 9, 30, 0)
s = 94: (0, 31, 58, 15, 4, 59, 5, 15, 10, 9, 27, 0)
s = 95: (0, 24, 32, 13, 3, 35, 5, 20, 7, 9, 30, 0)
s = 96: (0, 27, 32, 24, 5, 33, 6, 12, 10, 7, 34, 0)
s = 97: (0, 35, 51, 26, 7, 42, 4, 14, 12, 12, 54, 0)
s = 98: (0, 27, 41, 22, 6, 41, 9, 20, 6, 13, 52, 0)
s = 99: (0, 34, 78, 14, 4, 64, 7, 10, 5, 11, 40, 0)
s = 100: (0, 27, 41, 26, 4, 30, 5, 19, 10, 10, 49, 0)
s = 101: (0, 46, 40, 23, 4, 29, 4, 21, 6, 13, 33, 0)
s = 102: (0, 36, 35, 13, 5, 42, 6, 17, 11, 12, 35, 0)
s = 103: (0, 42, 44, 25, 5, 34, 5, 10, 8, 8, 55, 0)
s = 104: (0, 28, 61, 17, 7, 49, 5, 16, 6, 13, 47, 0)
s = 105: (0, 36, 29, 18, 3, 30, 5, 18, 11, 10, 53, 0)
s = 106: (0, 49, 43, 23, 5, 53, 6, 16, 6, 17, 38, 0)
s = 107: (0, 22, 34, 32, 7, 53, 5, 15, 8, 14, 39, 0)
s = 108: (0, 21, 42, 36, 5, 42, 6, 18, 9, 15, 55, 0)
s = 109: (0, 46, 67, 30, 4, 46, 7, 14, 13, 13, 40, 0)
s = 110: (0, 26, 76, 20, 4, 58, 4, 25, 5, 9, 37, 0)
s = 111: (0, 32, 38, 15, 4, 43, 4, 11, 13, 15, 54, 0)
s = 112: (0, 39, 49, 19, 5, 52, 6, 9, 7, 10, 49, 0)
s = 113: (0, 43, 56, 15, 6, 30, 7, 15, 6, 7, 48, 0)
s = 114: (0, 34, 55, 12, 5, 51, 6, 8, 12, 9, 48, 0)
s = 115: (0, 23, 45, 14, 5, 29, 5, 19, 8, 12, 36, 0)
s = 116: (0, 40, 38, 18, 7, 70, 6, 10, 7, 8, 43, 0)
s = 117: (0, 24, 36, 18, 8, 52, 6, 12, 7, 11, 25, 0)
s = 118: (0, 30, 33, 23, 5, 35, 6, 16, 13, 8, 50, 0)
s = 119: (0, 22, 57, 22, 4, 26, 7, 11, 10, 8, 49, 0)
s = 120: (0, 32, 53, 12, 5, 47, 6, 11, 10, 10, 37, 0)
s = 121: (0, 41, 65, 18, 6, 50, 6, 15, 7, 8, 50, 0)
s = 122: (0, 19, 57, 22, 5, 52, 7, 13, 5, 16, 44, 0)
s = 123: (0, 32, 32, 15, 7, 40, 6, 19, 9, 12, 42, 0)
s = 124: (0, 49, 63, 13, 6, 56, 4, 9, 7, 9, 31, 0)
s = 125: (0, 23, 53, 12, 5, 29, 7, 12, 14, 10, 28, 0)
s = 126: (0, 29, 74, 27, 4, 38, 4, 9, 10, 14, 40, 0)
s = 127: (0, 25, 35, 17, 4, 41, 10, 9, 8, 8, 51, 0)
s = 128: (0, 50, 46, 12, 5, 40, 7, 15, 6, 8, 48, 0)
s = 129: (0, 18, 35, 16, 4, 28, 5, 26, 8, 13, 30, 0)
s = 130: (0, 32, 83, 17, 4, 41, 4, 13, 10, 9, 44, 0)
s = 131: (0, 34, 36, 22, 6, 47, 9, 13, 5, 10, 49, 0)
s = 132: (0, 29, 36, 18, 4, 64, 6, 17, 8, 6, 29, 0)
s = 133: (0, 34, 53, 16, 4, 75, 6, 10, 10, 12, 41, 0)
s = 134: (0, 19, 47, 22, 4, 34, 5, 13, 7, 11, 50, 0)
s = 135: (0, 23, 82, 13, 7, 49, 5, 22, 7, 14, 62, 0)
s = 136: (0, 35, 66, 16, 7, 57, 6, 9, 7, 6, 45, 0)
s = 137: (0, 37, 30, 19, 5, 38, 5, 14, 7, 11, 30, 0)
s = 138: (0, 36, 53, 30, 5, 39, 5, 10, 9, 11, 46, 0)
s = 139: (0, 46, 84, 13, 6, 35, 7, 15, 10, 17, 32, 0)
s = 140: (0, 30, 43, 15, 5, 39, 4, 12, 5, 7, 41, 0)
s = 141: (0, 24, 40, 24, 5, 68, 6, 11, 9, 9, 56, 0)
s = 142: (0, 28, 37, 25, 4, 43, 5, 15, 8, 11, 30, 0)
s = 143: (0, 39, 63, 14, 8, 35, 5, 8, 8, 15, 42, 0)
s = 144: (0, 56, 93, 18, 5, 38, 4, 9, 6, 7, 33, 0)
s = 145: (0, 30, 78, 15, 6, 50, 4, 13, 8, 14, 31, 0)
s = 146: (0, 26, 43, 18, 8, 44, 6, 12, 5, 12, 40, 0)
s = 147: (0, 21, 31, 24, 5, 28, 8, 11, 6, 8, 46, 0)
s = 148: (0, 36, 55, 17, 7, 44, 6, 13, 6, 9, 46, 0)
s = 149: (0, 39, 46, 16, 6, 37, 7, 14, 7, 10, 30, 0)
s = 150: (0, 32, 39, 32, 4, 62, 9, 13, 7, 12, 46, 0)
s = 151: (0, 30, 39, 19, 5, 47, 8, 10, 6, 10, 33, 0)
s = 152: (0, 46, 34, 12, 4, 35, 3, 12, 6, 9, 41, 0)
s = 153: (0, 20, 53, 15, 5, 51, 4, 14, 6, 9, 60, 0)
s = 154: (0, 30, 50, 28, 4, 23, 4, 11, 7, 10, 49, 0)
s = 155: (0, 20, 80, 19, 7, 52, 8, 15, 8, 14, 49, 0)
s = 156: (0, 31, 37, 12, 4, 33, 4, 12, 8, 15, 22, 0)
s = 157: (0, 22, 39, 24, 5, 68, 6, 14, 10, 7, 34, 0)
s = 158: (0, 30, 42, 28, 5, 39, 5, 17, 10, 9, 35, 0)
s = 159: (0, 39, 47, 29, 8, 25, 6, 16, 6, 9, 68, 0)
s = 160: (0, 22, 64, 31, 4, 24, 6, 12, 7, 9, 43, 0)
s = 161: (0, 39, 75, 26, 4, 55, 8, 13, 5, 16, 46, 0)
s = 162: (0, 51, 54, 15, 6, 40, 5, 18, 8, 13, 39, 0)
s = 163: (0, 25, 63, 26, 5, 44, 5, 12, 11, 16, 28, 0)
s = 164: (0, 29, 61, 19, 7, 23, 6, 15, 6, 10, 52, 0)
s = 165: (0, 32, 78, 25, 5, 30, 4, 11, 8, 7, 76, 0)
s = 166: (0, 37, 71, 22, 6, 66, 5, 17, 13, 15, 39, 0)
s = 167: (0, 21, 74, 24, 5, 54, 6, 11, 5, 11, 67, 0)
s = 168: (0, 37, 41, 18, 6, 51, 8, 19, 8, 8, 29, 0)
s = 169: (0, 31, 69, 24, 6, 38, 5, 16, 9, 15, 59, 0)
s = 170: (0, 26, 43, 31, 5, 48, 6, 8, 8, 16, 38, 0)
s = 171: (0, 48, 38, 26, 3, 58, 4, 11, 9, 8, 41, 0)
s = 172: (0, 41, 56, 25, 5, 31, 5, 18, 6, 8, 31, 0)
s = 173: (0, 27, 58, 26, 9, 45, 6, 17, 10, 9, 26, 0)
s = 174: (0, 25, 45, 21, 5, 48, 5, 14, 6, 9, 39, 0)
s = 175: (0, 23, 71, 11, 5, 45, 5, 16, 5, 7, 46, 0)
s = 176: (0, 21, 44, 22, 7, 49, 5, 13, 8, 11, 35, 0)
s = 177: (0, 41, 48, 25, 4, 47, 6, 14, 8, 9, 52, 0)
s = 178: (0, 24, 32, 30, 5, 38, 5, 10, 10, 11, 31, 0)
s = 179: (0, 34, 64, 17, 4, 51, 6, 16, 11, 15, 25, 0)
s = 180: (0, 26, 31, 23, 6, 33, 4, 14, 10, 7, 41, 0)
s = 181: (0, 21, 56, 12, 4, 76, 5, 10, 9, 8, 54, 0)
s = 182: (0, 20, 66, 14, 6, 31, 4, 9, 7, 11, 35, 0)
s = 183: (0, 21, 52, 13, 7, 37, 4, 20, 12, 17, 69, 0)
s = 184: (0, 32, 56, 26, 5, 51, 6, 12, 12, 7, 33, 0)
s = 185: (0, 30, 57, 16, 4, 34, 5, 10, 9, 8, 39, 0)
s = 186: (0, 31, 101, 23, 3, 67, 7, 13, 12, 12, 36, 0)
s = 187: (0, 40, 78, 23, 3, 38, 7, 11, 9, 9, 30, 0)
s = 188: (0, 33, 63, 19, 3, 39, 5, 9, 9, 8, 59, 0)
s = 189: (0, 41, 48, 14, 6, 33, 7, 16, 13, 11, 50, 0)
s = 190: (0, 32, 48, 21, 6, 27, 5, 13, 12, 14, 39, 0)
s = 191: (0, 25, 38, 16, 7, 44, 5, 23, 7, 12, 24, 0)
s = 192: (0, 27, 81, 14, 5, 36, 7, 11, 10, 8, 60, 0)
s = 193: (0, 28, 46, 19, 4, 59, 4, 9, 6, 14, 25, 0)
s = 194: (0, 34, 54, 12, 6, 29, 4, 14, 6, 13, 41, 0)
s = 195: (0, 18, 68, 15, 4, 31, 5, 13, 8, 7, 48, 0)
s = 196: (0, 39, 53, 16, 5, 37, 5, 20, 7, 12, 29, 0)
s = 197: (0, 30, 98, 27, 3, 28, 5, 11, 6, 7, 57, 0)
s = 198: (0, 46, 29, 16, 4, 33, 6, 16, 11, 10, 36, 0)
s = 199: (0, 39, 34, 19, 5, 30, 6, 15, 11, 9, 51, 0)
s = 200: (0, 35, 64, 20, 6, 32, 6, 18, 7, 11, 47, 0)
************************************************************************
ES/LS-VALUES:
jobnr.   ES(i)    LS(i)
------------------------------------------------------------------------
  0        0        0
  1        0       45
  2        0       48
  3        0       51
  4        8       62
  5        5       51
  6       15       62
  7       11       60
  8       14       72
  9       11       74
 10       17       64
 11       28       76
************************************************************************
BIG-M-VALUES:
M1 = 64, M2 = 342
************************************************************************
